Copyright (C) 2013-2015, Filipe Brandao
Build (method = -2)
  #dp: 846
  Step-3' Graph: 54 vertices and 426 arcs (0.00s)
  Step-4' Graph: 39 vertices and 396 arcs (0.00s)
  #V4/#V3 = 0.72
  #A4/#A3 = 0.93
Ready! (0.00s)
Optimize a model with 86 rows, 397 columns and 1118 nonzeros
Found heuristic solution: objective 32
Presolve removed 22 rows and 22 columns
Presolve time: 0.00s
Presolved: 64 rows, 375 columns, 906 nonzeros
Variable types: 0 continuous, 375 integer (316 binary)
Optimize a model with 64 rows, 375 columns and 906 nonzeros
Presolved: 64 rows, 375 columns, 906 nonzeros

Root barrier log...

Ordering time: 0.00s

Barrier statistics:
 AA' NZ     : 4.590e+02
 Factor NZ  : 1.181e+03
 Factor Ops : 2.719e+04 (less than 1 second per iteration)
 Threads    : 1

                  Objective                Residual
Iter       Primal          Dual         Primal    Dual     Compl     Time
   0   4.16050381e+02 -3.80844874e+02  3.44e+02 2.20e-01  3.78e+00     0s
   1   9.87793458e+01 -1.17763766e+02  4.77e+01 4.44e-16  6.20e-01     0s
   2   3.60504680e+01 -4.02648169e+00  2.52e+00 3.61e-16  6.70e-02     0s
   3   2.85757489e+01  1.58514817e+01  1.02e-01 1.94e-16  1.73e-02     0s
   4   2.59778285e+01  2.25588790e+01  1.48e-02 2.22e-16  4.59e-03     0s
   5   2.49595971e+01  2.39344130e+01  1.49e-03 2.11e-16  1.37e-03     0s
   6   2.47753212e+01  2.46842645e+01  1.77e-04 2.11e-16  1.21e-04     0s
   7   2.47503595e+01  2.47495308e+01  5.95e-08 1.97e-16  1.10e-06     0s
   8   2.47500004e+01  2.47499995e+01  5.44e-15 2.22e-16  1.10e-09     0s
   9   2.47500000e+01  2.47500000e+01  3.99e-15 2.22e-16  1.11e-15     0s

Barrier solved model in 9 iterations and 0.00 seconds
Optimal objective 2.47500000e+01


Root relaxation: objective 2.475000e+01, 140 iterations, 0.00 seconds

    Nodes    |    Current Node    |     Objective Bounds      |     Work
 Expl Unexpl |  Obj  Depth IntInf | Incumbent    BestBd   Gap | It/Node Time

     0     0   24.75000    0    8   32.00000   24.75000  22.7%     -    0s
H    0     0                      27.0000000   24.75000  8.33%     -    0s
H    0     0                      25.0000000   24.75000  1.00%     -    0s

Explored 0 nodes (184 simplex iterations) in 0.01 seconds
Thread count was 1 (of 4 available processors)

Optimal solution found (tolerance 0.00e+00)
Best objective 2.500000000000e+01, best bound 2.500000000000e+01, gap 0.0%
Preprocessing time: 0.00 seconds
Gurobi run time: 0.01 seconds
Total run time: 0.01 seconds
Objective: 25
Solution:
1 x [i=1, i=41]
1 x [i=2, i=42]
1 x [i=3, i=40]
2 x [i=4, i=47]
1 x [i=5, i=38]
1 x [i=5, i=39]
1 x [i=6, i=37]
1 x [i=7, i=36]
1 x [i=8, i=34]
1 x [i=9, i=35]
1 x [i=10, i=44]
1 x [i=11, i=45]
1 x [i=12, i=33]
1 x [i=13, i=46]
1 x [i=14, i=26]
1 x [i=15, i=32]
1 x [i=16, i=24]
1 x [i=17, i=23]
1 x [i=18, i=31]
1 x [i=19, i=43]
1 x [i=20, i=21]
1 x [i=22, i=30]
1 x [i=25, i=27]
1 x [i=28, i=29]
